# Solution for model MIP
# Objective value = -4.6527918846952679e+02
theta -3.2390400000000045e+02
z_w0_k0_m0 7.8055284552845539e-01
z_w0_k1_m0 8.3200000000000007e-01
z_w1_k0_m0 7.8055284552845539e-01
z_w1_k1_m0 8.3200000000000007e-01
z_w2_k0_m0 7.8055284552845539e-01
z_w2_k1_m0 8.3200000000000007e-01
z_w3_k0_m0 7.8055284552845539e-01
z_w3_k1_m0 8.3200000000000007e-01
z_w4_k0_m0 7.8055284552845539e-01
z_w4_k1_m0 8.3200000000000007e-01
pi_w0_t0_k0 0
pi_w0_t0_k1 0
pi_w0_t1_k0 0
pi_w0_t1_k1 0
pi_w0_t2_k0 0
pi_w0_t2_k1 0
pi_w0_t3_k0 0
pi_w0_t3_k1 0
pi_w0_t4_k0 0
pi_w0_t4_k1 0
pi_w0_t5_k0 0
pi_w0_t5_k1 0
pi_w0_t6_k0 9.3816447779862422e-01
pi_w0_t6_k1 1
pi_w0_t7_k0 6.1835522201375781e-02
pi_w0_t7_k1 0
pi_w1_t0_k0 0
pi_w1_t0_k1 0
pi_w1_t1_k0 0
pi_w1_t1_k1 0
pi_w1_t2_k0 0
pi_w1_t2_k1 0
pi_w1_t3_k0 4.5934959349593429e-01
pi_w1_t3_k1 0
pi_w1_t4_k0 0
pi_w1_t4_k1 0
pi_w1_t5_k0 0
pi_w1_t5_k1 0
pi_w1_t6_k0 5.4065040650406571e-01
pi_w1_t6_k1 1
pi_w1_t7_k0 0
pi_w1_t7_k1 0
pi_w2_t0_k0 0
pi_w2_t0_k1 0
pi_w2_t1_k0 0
pi_w2_t1_k1 0
pi_w2_t2_k0 0
pi_w2_t2_k1 0
pi_w2_t3_k0 4.5934959349593429e-01
pi_w2_t3_k1 0
pi_w2_t4_k0 0
pi_w2_t4_k1 0
pi_w2_t5_k0 0
pi_w2_t5_k1 0
pi_w2_t6_k0 5.4065040650406571e-01
pi_w2_t6_k1 1
pi_w2_t7_k0 0
pi_w2_t7_k1 0
pi_w3_t0_k0 0
pi_w3_t0_k1 0
pi_w3_t1_k0 0
pi_w3_t1_k1 0
pi_w3_t2_k0 0
pi_w3_t2_k1 0
pi_w3_t3_k0 4.5934959349593429e-01
pi_w3_t3_k1 0
pi_w3_t4_k0 0
pi_w3_t4_k1 0
pi_w3_t5_k0 0
pi_w3_t5_k1 0
pi_w3_t6_k0 5.4065040650406571e-01
pi_w3_t6_k1 1
pi_w3_t7_k0 0
pi_w3_t7_k1 0
pi_w4_t0_k0 0
pi_w4_t0_k1 0
pi_w4_t1_k0 0
pi_w4_t1_k1 0
pi_w4_t2_k0 0
pi_w4_t2_k1 0
pi_w4_t3_k0 0
pi_w4_t3_k1 0
pi_w4_t4_k0 2.0415537488708210e-01
pi_w4_t4_k1 0
pi_w4_t5_k0 0
pi_w4_t5_k1 0
pi_w4_t6_k0 7.9584462511291787e-01
pi_w4_t6_k1 1
pi_w4_t7_k0 0
pi_w4_t7_k1 0
n_w0_t0_k0 0
n_w0_t0_k1 0
n_w0_t1_k0 0
n_w0_t1_k1 0
n_w0_t2_k0 0
n_w0_t2_k1 0
n_w0_t3_k0 0
n_w0_t3_k1 0
n_w0_t4_k0 0
n_w0_t4_k1 0
n_w0_t5_k0 0
n_w0_t5_k1 0
n_w0_t6_k0 0
n_w0_t6_k1 0
n_w0_t7_k0 0
n_w0_t7_k1 0
n_w1_t0_k0 0
n_w1_t0_k1 0
n_w1_t1_k0 0
n_w1_t1_k1 0
n_w1_t2_k0 0
n_w1_t2_k1 0
n_w1_t3_k0 5.5121951219512120e+00
n_w1_t3_k1 0
n_w1_t4_k0 0
n_w1_t4_k1 0
n_w1_t5_k0 0
n_w1_t5_k1 0
n_w1_t6_k0 6.4878048780487880e+00
n_w1_t6_k1 201
n_w1_t7_k0 0
n_w1_t7_k1 0
n_w2_t0_k0 0
n_w2_t0_k1 0
n_w2_t1_k0 0
n_w2_t1_k1 0
n_w2_t2_k0 0
n_w2_t2_k1 0
n_w2_t3_k0 7.9926829268292565e+01
n_w2_t3_k1 0
n_w2_t4_k0 0
n_w2_t4_k1 0
n_w2_t5_k0 0
n_w2_t5_k1 0
n_w2_t6_k0 9.4073170731707435e+01
n_w2_t6_k1 117
n_w2_t7_k0 0
n_w2_t7_k1 0
n_w3_t0_k0 0
n_w3_t0_k1 0
n_w3_t1_k0 0
n_w3_t1_k1 0
n_w3_t2_k0 0
n_w3_t2_k1 0
n_w3_t3_k0 8.2682926829268180e+00
n_w3_t3_k1 0
n_w3_t4_k0 0
n_w3_t4_k1 0
n_w3_t5_k0 0
n_w3_t5_k1 0
n_w3_t6_k0 9.7317073170731820e+00
n_w3_t6_k1 207
n_w3_t7_k0 0
n_w3_t7_k1 0
n_w4_t0_k0 0
n_w4_t0_k1 0
n_w4_t1_k0 0
n_w4_t1_k1 0
n_w4_t2_k0 0
n_w4_t2_k1 0
n_w4_t3_k0 0
n_w4_t3_k1 0
n_w4_t4_k0 0
n_w4_t4_k1 0
n_w4_t5_k0 0
n_w4_t5_k1 0
n_w4_t6_k0 0
n_w4_t6_k1 0
n_w4_t7_k0 0
n_w4_t7_k1 0
o_w0_r0 0
o_w0_r1 0
o_w0_r2 0
o_w1_r0 0
o_w1_r1 211.296
o_w1_r2 1.4099842987804880e+02
o_w2_r0 0
o_w2_r1 499.968
o_w2_r2 3.2989597560975625e+02
o_w3_r0 0
o_w3_r1 723.168
o_w3_r2 4.8695580792682949e+02
o_w4_r0 0
o_w4_r1 723.168
o_w4_r2 2.9945580792682949e+02
y_w0_r0 0
y_w0_r1 0
y_w0_r2 0
y_w1_r0 2.13
y_w1_r1 0.0213
y_w1_r2 0.886525
y_w2_r0 2.91
y_w2_r1 0.0291
y_w2_r2 2.9567499999999969e-01
y_w3_r0 2.25
y_w3_r1 0.0225
y_w3_r2 7.9562499999999980e-01
y_w4_r0 0
y_w4_r1 0
y_w4_r2 2.5
p_w0 10
s_w0 10
p_w1 10
s_w1 0
p_w2 10
s_w2 0
p_w3 10
s_w3 0
p_w4 10
s_w4 0
